N	q	DEPTOS
63	1	1
82	1	1
153	1	1
167	1	1
191	2	2
235	1	1
317	1	1
366	1	1
382	1	1
452	1	1
562	2	2
572	1	1
635	1	1
663	1	1
667	1	1
738	1	1
754	1	1
802	1	1
817	1	1
864	1	1
895	1	1
921	1	1
1095	1	1
1117	1	1
1132	1	1
1190	1	1
1276	2	2
1278	1	1
1322	1	1
1455	1	1
1577	1	1
1631	1	1
1658	1	1
1694	1	1
1836	1	1
0	0	0
1838	0	0
